p cnf 90 775
1 2 3 4 5 6 7 8 9 0 
-1 -2 0 
-1 -3 0 
-1 -4 0 
-1 -5 0 
-1 -6 0 
-1 -7 0 
-1 -8 0 
-1 -9 0 
-2 -3 0 
-2 -4 0 
-2 -5 0 
-2 -6 0 
-2 -7 0 
-2 -8 0 
-2 -9 0 
-3 -4 0 
-3 -5 0 
-3 -6 0 
-3 -7 0 
-3 -8 0 
-3 -9 0 
-4 -5 0 
-4 -6 0 
-4 -7 0 
-4 -8 0 
-4 -9 0 
-5 -6 0 
-5 -7 0 
-5 -8 0 
-5 -9 0 
-6 -7 0 
-6 -8 0 
-6 -9 0 
-7 -8 0 
-7 -9 0 
-8 -9 0 
-10 -1 0 
-11 -2 0 
-12 -3 0 
-13 -4 0 
-14 -5 0 
-15 -6 0 
-16 -7 0 
-17 -8 0 
-18 -9 0 
-19 -1 0 
-20 -2 0 
-21 -3 0 
-22 -4 0 
-23 -5 0 
-24 -6 0 
-25 -7 0 
-26 -8 0 
-27 -9 0 
-28 -1 0 
-29 -2 0 
-30 -3 0 
-31 -4 0 
-32 -5 0 
-33 -6 0 
-34 -7 0 
-35 -8 0 
-36 -9 0 
-37 -1 0 
-38 -2 0 
-39 -3 0 
-40 -4 0 
-41 -5 0 
-42 -6 0 
-43 -7 0 
-44 -8 0 
-45 -9 0 
-46 -1 0 
-47 -2 0 
-48 -3 0 
-49 -4 0 
-50 -5 0 
-51 -6 0 
-52 -7 0 
-53 -8 0 
-54 -9 0 
-55 -1 0 
-56 -2 0 
-57 -3 0 
-58 -4 0 
-59 -5 0 
-60 -6 0 
-61 -7 0 
-62 -8 0 
-63 -9 0 
-64 -1 0 
-65 -2 0 
-66 -3 0 
-67 -4 0 
-68 -5 0 
-69 -6 0 
-70 -7 0 
-71 -8 0 
-72 -9 0 
-73 -1 0 
-74 -2 0 
-75 -3 0 
-76 -4 0 
-77 -5 0 
-78 -6 0 
-79 -7 0 
-80 -8 0 
-81 -9 0 
-82 -1 0 
-83 -2 0 
-84 -3 0 
-85 -4 0 
-86 -5 0 
-87 -6 0 
-88 -7 0 
-89 -8 0 
-90 -9 0 
10 11 12 13 14 15 16 17 18 0 
-10 -11 0 
-10 -12 0 
-10 -13 0 
-10 -14 0 
-10 -15 0 
-10 -16 0 
-10 -17 0 
-10 -18 0 
-11 -12 0 
-11 -13 0 
-11 -14 0 
-11 -15 0 
-11 -16 0 
-11 -17 0 
-11 -18 0 
-12 -13 0 
-12 -14 0 
-12 -15 0 
-12 -16 0 
-12 -17 0 
-12 -18 0 
-13 -14 0 
-13 -15 0 
-13 -16 0 
-13 -17 0 
-13 -18 0 
-14 -15 0 
-14 -16 0 
-14 -17 0 
-14 -18 0 
-15 -16 0 
-15 -17 0 
-15 -18 0 
-16 -17 0 
-16 -18 0 
-17 -18 0 
-19 -10 0 
-20 -11 0 
-21 -12 0 
-22 -13 0 
-23 -14 0 
-24 -15 0 
-25 -16 0 
-26 -17 0 
-27 -18 0 
-28 -10 0 
-29 -11 0 
-30 -12 0 
-31 -13 0 
-32 -14 0 
-33 -15 0 
-34 -16 0 
-35 -17 0 
-36 -18 0 
-37 -10 0 
-38 -11 0 
-39 -12 0 
-40 -13 0 
-41 -14 0 
-42 -15 0 
-43 -16 0 
-44 -17 0 
-45 -18 0 
-46 -10 0 
-47 -11 0 
-48 -12 0 
-49 -13 0 
-50 -14 0 
-51 -15 0 
-52 -16 0 
-53 -17 0 
-54 -18 0 
-55 -10 0 
-56 -11 0 
-57 -12 0 
-58 -13 0 
-59 -14 0 
-60 -15 0 
-61 -16 0 
-62 -17 0 
-63 -18 0 
-64 -10 0 
-65 -11 0 
-66 -12 0 
-67 -13 0 
-68 -14 0 
-69 -15 0 
-70 -16 0 
-71 -17 0 
-72 -18 0 
-73 -10 0 
-74 -11 0 
-75 -12 0 
-76 -13 0 
-77 -14 0 
-78 -15 0 
-79 -16 0 
-80 -17 0 
-81 -18 0 
-82 -10 0 
-83 -11 0 
-84 -12 0 
-85 -13 0 
-86 -14 0 
-87 -15 0 
-88 -16 0 
-89 -17 0 
-90 -18 0 
19 20 21 22 23 24 25 26 27 0 
-19 -20 0 
-19 -21 0 
-19 -22 0 
-19 -23 0 
-19 -24 0 
-19 -25 0 
-19 -26 0 
-19 -27 0 
-20 -21 0 
-20 -22 0 
-20 -23 0 
-20 -24 0 
-20 -25 0 
-20 -26 0 
-20 -27 0 
-21 -22 0 
-21 -23 0 
-21 -24 0 
-21 -25 0 
-21 -26 0 
-21 -27 0 
-22 -23 0 
-22 -24 0 
-22 -25 0 
-22 -26 0 
-22 -27 0 
-23 -24 0 
-23 -25 0 
-23 -26 0 
-23 -27 0 
-24 -25 0 
-24 -26 0 
-24 -27 0 
-25 -26 0 
-25 -27 0 
-26 -27 0 
-28 -19 0 
-29 -20 0 
-30 -21 0 
-31 -22 0 
-32 -23 0 
-33 -24 0 
-34 -25 0 
-35 -26 0 
-36 -27 0 
-37 -19 0 
-38 -20 0 
-39 -21 0 
-40 -22 0 
-41 -23 0 
-42 -24 0 
-43 -25 0 
-44 -26 0 
-45 -27 0 
-46 -19 0 
-47 -20 0 
-48 -21 0 
-49 -22 0 
-50 -23 0 
-51 -24 0 
-52 -25 0 
-53 -26 0 
-54 -27 0 
-55 -19 0 
-56 -20 0 
-57 -21 0 
-58 -22 0 
-59 -23 0 
-60 -24 0 
-61 -25 0 
-62 -26 0 
-63 -27 0 
-64 -19 0 
-65 -20 0 
-66 -21 0 
-67 -22 0 
-68 -23 0 
-69 -24 0 
-70 -25 0 
-71 -26 0 
-72 -27 0 
-73 -19 0 
-74 -20 0 
-75 -21 0 
-76 -22 0 
-77 -23 0 
-78 -24 0 
-79 -25 0 
-80 -26 0 
-81 -27 0 
-82 -19 0 
-83 -20 0 
-84 -21 0 
-85 -22 0 
-86 -23 0 
-87 -24 0 
-88 -25 0 
-89 -26 0 
-90 -27 0 
28 29 30 31 32 33 34 35 36 0 
-28 -29 0 
-28 -30 0 
-28 -31 0 
-28 -32 0 
-28 -33 0 
-28 -34 0 
-28 -35 0 
-28 -36 0 
-29 -30 0 
-29 -31 0 
-29 -32 0 
-29 -33 0 
-29 -34 0 
-29 -35 0 
-29 -36 0 
-30 -31 0 
-30 -32 0 
-30 -33 0 
-30 -34 0 
-30 -35 0 
-30 -36 0 
-31 -32 0 
-31 -33 0 
-31 -34 0 
-31 -35 0 
-31 -36 0 
-32 -33 0 
-32 -34 0 
-32 -35 0 
-32 -36 0 
-33 -34 0 
-33 -35 0 
-33 -36 0 
-34 -35 0 
-34 -36 0 
-35 -36 0 
-37 -28 0 
-38 -29 0 
-39 -30 0 
-40 -31 0 
-41 -32 0 
-42 -33 0 
-43 -34 0 
-44 -35 0 
-45 -36 0 
-46 -28 0 
-47 -29 0 
-48 -30 0 
-49 -31 0 
-50 -32 0 
-51 -33 0 
-52 -34 0 
-53 -35 0 
-54 -36 0 
-55 -28 0 
-56 -29 0 
-57 -30 0 
-58 -31 0 
-59 -32 0 
-60 -33 0 
-61 -34 0 
-62 -35 0 
-63 -36 0 
-64 -28 0 
-65 -29 0 
-66 -30 0 
-67 -31 0 
-68 -32 0 
-69 -33 0 
-70 -34 0 
-71 -35 0 
-72 -36 0 
-73 -28 0 
-74 -29 0 
-75 -30 0 
-76 -31 0 
-77 -32 0 
-78 -33 0 
-79 -34 0 
-80 -35 0 
-81 -36 0 
-82 -28 0 
-83 -29 0 
-84 -30 0 
-85 -31 0 
-86 -32 0 
-87 -33 0 
-88 -34 0 
-89 -35 0 
-90 -36 0 
37 38 39 40 41 42 43 44 45 0 
-37 -38 0 
-37 -39 0 
-37 -40 0 
-37 -41 0 
-37 -42 0 
-37 -43 0 
-37 -44 0 
-37 -45 0 
-38 -39 0 
-38 -40 0 
-38 -41 0 
-38 -42 0 
-38 -43 0 
-38 -44 0 
-38 -45 0 
-39 -40 0 
-39 -41 0 
-39 -42 0 
-39 -43 0 
-39 -44 0 
-39 -45 0 
-40 -41 0 
-40 -42 0 
-40 -43 0 
-40 -44 0 
-40 -45 0 
-41 -42 0 
-41 -43 0 
-41 -44 0 
-41 -45 0 
-42 -43 0 
-42 -44 0 
-42 -45 0 
-43 -44 0 
-43 -45 0 
-44 -45 0 
-46 -37 0 
-47 -38 0 
-48 -39 0 
-49 -40 0 
-50 -41 0 
-51 -42 0 
-52 -43 0 
-53 -44 0 
-54 -45 0 
-55 -37 0 
-56 -38 0 
-57 -39 0 
-58 -40 0 
-59 -41 0 
-60 -42 0 
-61 -43 0 
-62 -44 0 
-63 -45 0 
-64 -37 0 
-65 -38 0 
-66 -39 0 
-67 -40 0 
-68 -41 0 
-69 -42 0 
-70 -43 0 
-71 -44 0 
-72 -45 0 
-73 -37 0 
-74 -38 0 
-75 -39 0 
-76 -40 0 
-77 -41 0 
-78 -42 0 
-79 -43 0 
-80 -44 0 
-81 -45 0 
-82 -37 0 
-83 -38 0 
-84 -39 0 
-85 -40 0 
-86 -41 0 
-87 -42 0 
-88 -43 0 
-89 -44 0 
-90 -45 0 
46 47 48 49 50 51 52 53 54 0 
-46 -47 0 
-46 -48 0 
-46 -49 0 
-46 -50 0 
-46 -51 0 
-46 -52 0 
-46 -53 0 
-46 -54 0 
-47 -48 0 
-47 -49 0 
-47 -50 0 
-47 -51 0 
-47 -52 0 
-47 -53 0 
-47 -54 0 
-48 -49 0 
-48 -50 0 
-48 -51 0 
-48 -52 0 
-48 -53 0 
-48 -54 0 
-49 -50 0 
-49 -51 0 
-49 -52 0 
-49 -53 0 
-49 -54 0 
-50 -51 0 
-50 -52 0 
-50 -53 0 
-50 -54 0 
-51 -52 0 
-51 -53 0 
-51 -54 0 
-52 -53 0 
-52 -54 0 
-53 -54 0 
-55 -46 0 
-56 -47 0 
-57 -48 0 
-58 -49 0 
-59 -50 0 
-60 -51 0 
-61 -52 0 
-62 -53 0 
-63 -54 0 
-64 -46 0 
-65 -47 0 
-66 -48 0 
-67 -49 0 
-68 -50 0 
-69 -51 0 
-70 -52 0 
-71 -53 0 
-72 -54 0 
-73 -46 0 
-74 -47 0 
-75 -48 0 
-76 -49 0 
-77 -50 0 
-78 -51 0 
-79 -52 0 
-80 -53 0 
-81 -54 0 
-82 -46 0 
-83 -47 0 
-84 -48 0 
-85 -49 0 
-86 -50 0 
-87 -51 0 
-88 -52 0 
-89 -53 0 
-90 -54 0 
55 56 57 58 59 60 61 62 63 0 
-55 -56 0 
-55 -57 0 
-55 -58 0 
-55 -59 0 
-55 -60 0 
-55 -61 0 
-55 -62 0 
-55 -63 0 
-56 -57 0 
-56 -58 0 
-56 -59 0 
-56 -60 0 
-56 -61 0 
-56 -62 0 
-56 -63 0 
-57 -58 0 
-57 -59 0 
-57 -60 0 
-57 -61 0 
-57 -62 0 
-57 -63 0 
-58 -59 0 
-58 -60 0 
-58 -61 0 
-58 -62 0 
-58 -63 0 
-59 -60 0 
-59 -61 0 
-59 -62 0 
-59 -63 0 
-60 -61 0 
-60 -62 0 
-60 -63 0 
-61 -62 0 
-61 -63 0 
-62 -63 0 
-64 -55 0 
-65 -56 0 
-66 -57 0 
-67 -58 0 
-68 -59 0 
-69 -60 0 
-70 -61 0 
-71 -62 0 
-72 -63 0 
-73 -55 0 
-74 -56 0 
-75 -57 0 
-76 -58 0 
-77 -59 0 
-78 -60 0 
-79 -61 0 
-80 -62 0 
-81 -63 0 
-82 -55 0 
-83 -56 0 
-84 -57 0 
-85 -58 0 
-86 -59 0 
-87 -60 0 
-88 -61 0 
-89 -62 0 
-90 -63 0 
64 65 66 67 68 69 70 71 72 0 
-64 -65 0 
-64 -66 0 
-64 -67 0 
-64 -68 0 
-64 -69 0 
-64 -70 0 
-64 -71 0 
-64 -72 0 
-65 -66 0 
-65 -67 0 
-65 -68 0 
-65 -69 0 
-65 -70 0 
-65 -71 0 
-65 -72 0 
-66 -67 0 
-66 -68 0 
-66 -69 0 
-66 -70 0 
-66 -71 0 
-66 -72 0 
-67 -68 0 
-67 -69 0 
-67 -70 0 
-67 -71 0 
-67 -72 0 
-68 -69 0 
-68 -70 0 
-68 -71 0 
-68 -72 0 
-69 -70 0 
-69 -71 0 
-69 -72 0 
-70 -71 0 
-70 -72 0 
-71 -72 0 
-73 -64 0 
-74 -65 0 
-75 -66 0 
-76 -67 0 
-77 -68 0 
-78 -69 0 
-79 -70 0 
-80 -71 0 
-81 -72 0 
-82 -64 0 
-83 -65 0 
-84 -66 0 
-85 -67 0 
-86 -68 0 
-87 -69 0 
-88 -70 0 
-89 -71 0 
-90 -72 0 
73 74 75 76 77 78 79 80 81 0 
-73 -74 0 
-73 -75 0 
-73 -76 0 
-73 -77 0 
-73 -78 0 
-73 -79 0 
-73 -80 0 
-73 -81 0 
-74 -75 0 
-74 -76 0 
-74 -77 0 
-74 -78 0 
-74 -79 0 
-74 -80 0 
-74 -81 0 
-75 -76 0 
-75 -77 0 
-75 -78 0 
-75 -79 0 
-75 -80 0 
-75 -81 0 
-76 -77 0 
-76 -78 0 
-76 -79 0 
-76 -80 0 
-76 -81 0 
-77 -78 0 
-77 -79 0 
-77 -80 0 
-77 -81 0 
-78 -79 0 
-78 -80 0 
-78 -81 0 
-79 -80 0 
-79 -81 0 
-80 -81 0 
-82 -73 0 
-83 -74 0 
-84 -75 0 
-85 -76 0 
-86 -77 0 
-87 -78 0 
-88 -79 0 
-89 -80 0 
-90 -81 0 
82 83 84 85 86 87 88 89 90 0 
-82 -83 0 
-82 -84 0 
-82 -85 0 
-82 -86 0 
-82 -87 0 
-82 -88 0 
-82 -89 0 
-82 -90 0 
-83 -84 0 
-83 -85 0 
-83 -86 0 
-83 -87 0 
-83 -88 0 
-83 -89 0 
-83 -90 0 
-84 -85 0 
-84 -86 0 
-84 -87 0 
-84 -88 0 
-84 -89 0 
-84 -90 0 
-85 -86 0 
-85 -87 0 
-85 -88 0 
-85 -89 0 
-85 -90 0 
-86 -87 0 
-86 -88 0 
-86 -89 0 
-86 -90 0 
-87 -88 0 
-87 -89 0 
-87 -90 0 
-88 -89 0 
-88 -90 0 
-89 -90 0 
